30 26
19 784
8 29
10 57
12 548
8 981
17 350
12 236
20 864
21 913
7 103
1 827
16 283
16 961
10 924
6 906
14 495
21 745
24 786
22 691
14 331
12 195
9 61
3 184
18 632
24 138
6 633
14 648
6 829
2 173
19 485
